************************************************************************
file with basedata            : mm58_.bas
initial value random generator: 367020778
************************************************************************
projects                      :  1
jobs (incl. supersource/sink ):  12
horizon                       :  71
RESOURCES
  - renewable                 :  2   R
  - nonrenewable              :  2   N
  - doubly constrained        :  0   D
************************************************************************
PROJECT INFORMATION:
pronr.  #jobs rel.date duedate tardcost  MPM-Time
    1     10      0       14        2       14
************************************************************************
PRECEDENCE RELATIONS:
jobnr.    #modes  #successors   successors
   1        1          3           2   3   4
   2        3          2           5   8
   3        3          2           7  11
   4        3          2           6  10
   5        3          1           7
   6        3          2           9  11
   7        3          2           9  10
   8        3          1          10
   9        3          1          12
  10        3          1          12
  11        3          1          12
  12        1          0        
************************************************************************
REQUESTS/DURATIONS:
jobnr. mode duration  R 1  R 2  N 1  N 2
------------------------------------------------------------------------
  1      1     0       0    0    0    0
  2      1     4       5    5    0    4
         2     6       5    5    2    0
         3     9       4    4    0    4
  3      1     9       7   10    7    0
         2    10       4    3    7    0
         3    10       3    5    7    0
  4      1     1       8    6    0    5
         2     1       7    5    7    0
         3     3       3    3    7    0
  5      1     1      10    7    0    8
         2     2      10    6    0    5
         3     2      10    6    9    0
  6      1     2       6    4    0    6
         2     5       6    4    4    0
         3    10       5    3    3    0
  7      1     3       5    5    6    0
         2     5       5    3    5    0
         3     6       5    2    2    0
  8      1     6       5   10    0    7
         2     8       5   10    0    5
         3    10       5   10    6    0
  9      1     1       7    9    5    0
         2     1       7   10    0    5
         3     4       5    8    3    0
 10      1     2       9    3    9    0
         2     5       9    2    6    0
         3    10       6    1    0    4
 11      1     2       5   10    3    0
         2     4       5    6    2    0
         3     7       4    6    0    6
 12      1     0       0    0    0    0
************************************************************************
RESOURCEAVAILABILITIES:
  R 1  R 2  N 1  N 2
   22   27   34   23
************************************************************************
MAXIMAL LAGS:
from  to  type  delay
    1   12   ES      0
    1    2   ES      0
    2   12   ES      0
    1    3   ES      0
    3   12   ES      0
    1    4   ES      0
    4   12   ES      0
    1    5   ES      0
    5   12   ES      0
    1    6   ES      0
    6   12   ES      0
    1    7   ES      0
    7   12   ES      0
    1    8   ES      0
    8   12   ES      0
    1    9   ES      0
    9   12   ES      0
    1   10   ES      0
   10   12   ES      0
    1   11   ES      0
   11   12   ES      0
    1   12   ES      0
    2    5   SS      0
    2    5   SE    -12
    2    5   ES    -10
    2    5   EE     -6
    2    8   SS     -4
    2    8   SE      3
    2    8   ES      2
    2    8   EE      5
    3    7   SS      6
    3    7   SE     -4
    3    7   ES      4
    3    7   EE      6
    3   11   SS      1
    3   11   SE     -6
    3   11   ES     -4
    3   11   EE    -11
    4    6   SS      1
    4    6   SE      8
    4    6   ES      3
    4    6   EE      7
    4   10   SS     -9
    4   10   SE      3
    4   10   ES      1
    4   10   EE      0
    5    7   SS     -2
    5    7   SE     -9
    5    7   ES     -8
    5    7   EE     -7
    6    9   SS     -9
    6    9   SE     -1
    6    9   ES     12
    6    9   EE    -11
    6   11   SS    -11
    6   11   SE    -10
    6   11   ES     -4
    6   11   EE     -9
    7    9   SS      5
    7    9   SE      5
    7    9   ES     -4
    7    9   EE     -8
    7   10   SS     -9
    7   10   SE     11
    7   10   ES      9
    7   10   EE      1
    8   10   SS     -6
    8   10   SE    -11
    8   10   ES      9
    8   10   EE      6
************************************************************************
